NAME: inst3.atsp
TYPE: ATSP
DIMENSION: 8
EDGE_WEIGHT_TYPE: EXPLICIT
EDGE_WEIGHT_FORMAT: FULL_MATRIX
EDGE_WEIGHT_SECTION:
0 98 76 12 80 96 27 73
85 0 58 76 59 34 62 14
20 86 0 97 69 54 5 45
23 19 44 0 52 88 90 8
50 64 35 99 0 12 36 60
31 95 96 78 75 0 14 94
5 74 43 13 24 54 0 91
79 96 8 15 81 45 87 0
EOF